p cnf 84 174
c ind 1 28 29 30 31 32 33 34 35 36 37 38 39 40 41 42 43 44 45 46 47 48 49 51 52 53 54 55 56 57 58 59 60 61 62 63 64 65 66 67 0
c 28 in(1,2)
c 29 in(1,3)
c 30 in(1,4)
c 31 in(2,4)
c 32 in(2,5)
c 33 in(2,6)
c 34 in(3,1)
c 35 in(3,4)
c 36 in(3,5)
c 37 in(4,1)
c 38 in(4,2)
c 39 in(5,3)
c 40 in(5,4)
c 41 in(5,6)
c 42 in(6,2)
c 43 in(6,3)
c 44 in(6,5)
c 45 reached(2)
c 46 reached(3)
c 47 reached(4)
c 48 reached(5)
c 49 reached(6)
c 50 reached(1)
-1 0
2 0
3 0
4 0
5 0
6 0
7 0
8 0
9 0
10 0
11 0
12 0
13 0
14 0
15 0
16 0
17 0
18 0
19 0
20 0
21 0
22 0
23 0
24 0
25 0
26 0
27 0
50 0
1 49 0
-1 -49 0
28 51 0
-28 -51 0
29 52 0
-29 -52 0
30 53 0
-30 -53 0
31 54 0
-31 -54 0
32 55 0
-32 -55 0
33 56 0
-33 -56 0
34 57 0
-34 -57 0
35 58 0
-35 -58 0
36 59 0
-36 -59 0
37 60 0
-37 -60 0
38 61 0
-38 -61 0
39 62 0
-39 -62 0
40 63 0
-40 -63 0
41 64 0
-41 -64 0
42 65 0
-42 -65 0
43 66 0
-43 -66 0
44 67 0
-44 -67 0
-68 47 0
-68 38 0
68 -47 -38 0
-74 49 0
-74 42 0
74 -49 -42 0
45 -28 0
45 -68 0
45 -74 0
-45 28 68 74 0
-75 49 0
-75 43 0
75 -49 -43 0
-77 48 0
-77 39 0
77 -48 -39 0
46 -29 0
46 -75 0
46 -77 0
-46 29 75 77 0
-69 46 0
-69 35 0
69 -46 -35 0
-71 45 0
-71 31 0
71 -45 -31 0
-78 48 0
-78 40 0
78 -48 -40 0
47 -30 0
47 -69 0
47 -71 0
47 -78 0
-47 30 69 71 78 0
-70 46 0
-70 36 0
70 -46 -36 0
-72 45 0
-72 32 0
72 -45 -32 0
-76 49 0
-76 44 0
76 -49 -44 0
48 -70 0
48 -72 0
48 -76 0
-48 70 72 76 0
-73 45 0
-73 33 0
73 -45 -33 0
-79 48 0
-79 41 0
79 -48 -41 0
49 -73 0
49 -79 0
-49 73 79 0
51 28 0
-51 -28 0
52 29 0
-52 -29 0
53 30 0
-53 -30 0
54 31 0
-54 -31 0
55 32 0
-55 -32 0
56 33 0
-56 -33 0
57 34 0
-57 -34 0
58 35 0
-58 -35 0
59 36 0
-59 -36 0
60 37 0
-60 -37 0
61 38 0
-61 -38 0
62 39 0
-62 -39 0
63 40 0
-63 -40 0
64 41 0
-64 -41 0
65 42 0
-65 -42 0
66 43 0
-66 -43 0
67 44 0
-67 -44 0
-80 45 0
-81 46 0
-82 47 0
-83 48 0
-84 49 0
80 -28 0
80 -82 -38 0
80 -84 -42 0
81 -29 0
81 -84 -43 0
81 -83 -39 0
82 -30 0
82 -81 -35 0
82 -80 -31 0
82 -83 -40 0
83 -81 -36 0
83 -80 -32 0
83 -84 -44 0
84 -80 -33 0
84 -83 -41 0
